 &CONTROL
    calculation = 'scf',
    disk_io='low',
    tprnfor=.true.,
    nstep = 2000,
    restart_mode='from_scratch',
     prefix='full-',
    outdir='./',        
   pseudo_dir='/home/fcnv733/PROGRAMS/espressoHahn/pseudopotentials/',  
 /


&system
    ibrav = 0, a=29.80, 
    nat= 70, ntyp= 1,
    ecutwfc = 30d0,
    nbnd = 185, 
    input_dft = B3LYP ,
    ecutfock = 40 ,
/

&electrons
    startingwfc='atomic',
    conv_thr = 1.0e-8,
    mixing_beta = 0.6,
    mixing_mode = 'plain',
    diagonalization = 'david'
/

ATOMIC_SPECIES
C   12.0107   C.blyp-hgh.UPF

ATOMIC_POSITIONS { angstrom }
C       -2.955403702  -2.377220215  -1.963041378
C       -1.892064720  -1.873211465  -2.813245545
C       -2.131884028  -0.456660405  -3.065521490
C       -3.817302092  -1.291332591  -1.614466931
C       -3.359778759  -0.113237072  -2.330328868
C       -3.979171966  -1.257532131  -0.172838539
C       -2.635303985  -3.092322329  -0.740012598
C       -3.239370238  -2.395212266   0.392318886
C       -1.345157579  -3.606352539  -0.614595754
C       -0.554409902  -2.375153595  -2.687167886
C       -0.361347973  -3.409121676  -1.681525521
C        0.578970673  -1.470260565  -3.014749189
C       -1.045992891   0.483331509  -3.208412360
C        0.347093578  -0.015444239  -3.224950033
C       -1.331456984   1.893118047  -2.817535598
C       -3.453218861   1.132938113  -1.687643536
C       -2.508816399   2.175121384  -2.019312173
C       -4.013991813   0.018071853   0.523831287
C       -3.820074494   1.223421147  -0.255656960
C       -3.549296035   0.036953970   1.874672316
C       -2.546441772  -2.286647859   1.656378226
C       -2.904385940  -1.148248515   2.465443405
C       -0.627781951  -3.569779886   0.672447410
C       -1.157710442  -2.859928139   1.798306269
C        0.928252612  -3.608877672  -1.094801134
C        0.790006887  -3.637686401   0.381737998
C        1.888542035  -1.913660122  -2.635876921
C        2.059931573  -3.036146413  -1.698412726
C        2.988365278  -0.981263546  -2.374615865
C        1.467906591   0.929662829  -2.961794578
C        2.773531484   0.436201289  -2.440139761
C       -0.221041640   2.789173058  -2.646977986
C        1.155901434   2.313286913  -2.723854510
C       -0.272760247   3.821113417  -1.630467603
C       -2.414004202   3.022569984  -0.834596832
C       -3.086824561   2.350537695   0.279904980
C       -1.273737446   3.792590242  -0.594322469
C       -2.865627078   1.216503229   2.423122629
C       -2.474516631   2.326673234   1.591124848
C       -1.986464725  -0.681391176   3.454938072
C       -1.976912470   0.769513124   3.449810905
C       -0.159497093  -2.237212705   2.708824757
C       -0.631751834  -1.155592375   3.540896621
C        1.782880547  -3.038102969   1.222324268
C        1.293242396  -2.281369503   2.396694951
C        3.184469996  -2.754811359  -0.855084383
C        3.824114917  -1.552039042  -1.337123462
C        3.049457312  -2.677013759   0.583375621
C        4.256293099  -0.780368965  -0.200930648
C        3.794832471  -1.493819054   1.012152871
C        3.502789794   1.234342250  -1.457150240
C        4.124279971   0.616577069  -0.285185501
C        1.927417152   3.103518732  -1.745214168
C        1.021708216   3.953890052  -1.020933099
C        2.963635818   2.497521321  -1.021481938
C       -0.581229586   3.725305894   0.705195487
C       -1.104402520   2.931154501   1.775394721
C        0.855767269   3.803585826   0.413430633
C       -0.615507838   1.224261443   3.525592356
C        0.195970611   0.025124085   3.777673898
C       -0.124849821   2.290067061   2.694028284
C        2.130617546  -1.190084182   2.847528029
C        3.307664938  -0.753024740   2.106030521
C        1.534258336   0.010593871   3.408867078
C        3.715709065   1.402299275   0.899575840
C        2.977430918   2.556905974   0.461439623
C        1.815478078   3.042709230   1.182967150
C        1.331810240   2.300052311   2.361819315
C        3.305460793   0.726331000   2.071943779
C        2.145698590   1.195108541   2.810195156




CELL_PARAMETERS {cubic}
 1.00  0.00  0.00
 0.00  1.00  0.00
 0.00  0.00  1.00 

K_POINTS
 1
 0.0 0.0 0.0  1.0
